Default variable names x1, x2 ... being created.
Default row names c1, c2 ... being created.
Tried aggregator 1 time.
Reduced MIP has 202 rows, 40 columns, and 422 nonzeros.
Reduced MIP has 40 binaries, 0 generals, 0 SOSs, and 0 indicators.
Presolve time = 0.00 sec. (0.32 ticks)
Found incumbent of value 0.000000 after 0.00 sec. (0.45 ticks)
Probing time = 0.00 sec. (0.06 ticks)
Tried aggregator 1 time.
Reduced MIP has 202 rows, 40 columns, and 422 nonzeros.
Reduced MIP has 40 binaries, 0 generals, 0 SOSs, and 0 indicators.
Presolve time = 0.00 sec. (0.32 ticks)
Probing time = 0.00 sec. (0.06 ticks)
Clique table members: 225.
MIP emphasis: balance optimality and feasibility.
MIP search method: dynamic search.
Parallel mode: deterministic, using up to 4 threads.
Root relaxation solution time = 0.00 sec. (0.78 ticks)

        Nodes                                         Cuts/
   Node  Left     Objective  IInf  Best Integer    Best Bound    ItCnt     Gap

*     0+    0                            0.0000       20.0000              --- 
*     0+    0                            1.0000       20.0000              --- 
      0     0       15.0000    40        1.0000       15.0000       69     --- 
*     0+    0                            4.0000       15.0000           275.00%
      0     0       13.7000    37        4.0000     Cuts: 143       98  242.50%
      0     0       13.0000    36        4.0000       Cuts: 5      120  225.00%
      0     0       13.0000    36        4.0000   ZeroHalf: 3      134  225.00%
      0     0       13.0000    36        4.0000   ZeroHalf: 4      162  225.00%
      0     0        cutoff              4.0000        4.0000      162    0.00%
Elapsed time = 0.03 sec. (13.77 ticks, tree = 0.00 MB, solutions = 3)

Clique cuts applied:  64
Zero-half cuts applied:  2
Gomory fractional cuts applied:  2

Root node processing (before b&c):
  Real time             =    0.03 sec. (13.77 ticks)
Parallel b&c, 4 threads:
  Real time             =    0.00 sec. (0.00 ticks)
  Sync time (average)   =    0.00 sec.
  Wait time (average)   =    0.00 sec.
                          ------------
Total (root+branch&cut) =    0.03 sec. (13.77 ticks)
Default variable names x1, x2 ... being created.
Default row names c1, c2 ... being created.
Tried aggregator 1 time.
Reduced MIP has 202 rows, 40 columns, and 422 nonzeros.
Reduced MIP has 40 binaries, 0 generals, 0 SOSs, and 0 indicators.
Presolve time = 0.00 sec. (0.32 ticks)
Found incumbent of value 0.000000 after 0.00 sec. (0.45 ticks)
Probing time = 0.00 sec. (0.06 ticks)
Tried aggregator 1 time.
Reduced MIP has 202 rows, 40 columns, and 422 nonzeros.
Reduced MIP has 40 binaries, 0 generals, 0 SOSs, and 0 indicators.
Presolve time = 0.00 sec. (0.32 ticks)
Probing time = 0.00 sec. (0.06 ticks)
Clique table members: 225.
MIP emphasis: balance optimality and feasibility.
MIP search method: dynamic search.
Parallel mode: deterministic, using up to 4 threads.
Root relaxation solution time = 0.00 sec. (0.78 ticks)

        Nodes                                         Cuts/
   Node  Left     Objective  IInf  Best Integer    Best Bound    ItCnt     Gap

*     0+    0                            0.0000       20.0000              --- 
*     0+    0                            1.0000       20.0000              --- 
      0     0       15.0000    40        1.0000       15.0000       69     --- 
*     0+    0                            4.0000       15.0000           275.00%
      0     0       13.7000    37        4.0000     Cuts: 143       98  242.50%
      0     0       13.0000    36        4.0000       Cuts: 5      120  225.00%
      0     0       13.0000    36        4.0000   ZeroHalf: 3      134  225.00%
      0     0       13.0000    36        4.0000   ZeroHalf: 4      162  225.00%
      0     0        cutoff              4.0000        4.0000      162    0.00%
Elapsed time = 0.03 sec. (13.77 ticks, tree = 0.00 MB, solutions = 3)

Clique cuts applied:  64
Zero-half cuts applied:  2
Gomory fractional cuts applied:  2

Root node processing (before b&c):
  Real time             =    0.03 sec. (13.77 ticks)
Parallel b&c, 4 threads:
  Real time             =    0.00 sec. (0.00 ticks)
  Sync time (average)   =    0.00 sec.
  Wait time (average)   =    0.00 sec.
                          ------------
Total (root+branch&cut) =    0.03 sec. (13.77 ticks)
Default variable names x1, x2 ... being created.
Default row names c1, c2 ... being created.
Tried aggregator 1 time.
Reduced MIP has 202 rows, 40 columns, and 422 nonzeros.
Reduced MIP has 40 binaries, 0 generals, 0 SOSs, and 0 indicators.
Presolve time = 0.00 sec. (0.32 ticks)
Found incumbent of value 0.000000 after 0.00 sec. (0.45 ticks)
Probing time = 0.00 sec. (0.06 ticks)
Tried aggregator 1 time.
Reduced MIP has 202 rows, 40 columns, and 422 nonzeros.
Reduced MIP has 40 binaries, 0 generals, 0 SOSs, and 0 indicators.
Presolve time = 0.00 sec. (0.32 ticks)
Probing time = 0.00 sec. (0.06 ticks)
Clique table members: 225.
MIP emphasis: balance optimality and feasibility.
MIP search method: dynamic search.
Parallel mode: deterministic, using up to 4 threads.
Root relaxation solution time = 0.00 sec. (0.78 ticks)

        Nodes                                         Cuts/
   Node  Left     Objective  IInf  Best Integer    Best Bound    ItCnt     Gap

*     0+    0                            0.0000       20.0000              --- 
*     0+    0                            1.0000       20.0000              --- 
      0     0       15.0000    40        1.0000       15.0000       69     --- 
*     0+    0                            4.0000       15.0000           275.00%
      0     0       13.7000    37        4.0000     Cuts: 143       98  242.50%
      0     0       13.0000    36        4.0000       Cuts: 5      120  225.00%
      0     0       13.0000    36        4.0000   ZeroHalf: 3      134  225.00%
      0     0       13.0000    36        4.0000   ZeroHalf: 4      162  225.00%
      0     0        cutoff              4.0000        4.0000      162    0.00%
Elapsed time = 0.02 sec. (13.77 ticks, tree = 0.00 MB, solutions = 3)

Clique cuts applied:  64
Zero-half cuts applied:  2
Gomory fractional cuts applied:  2

Root node processing (before b&c):
  Real time             =    0.02 sec. (13.77 ticks)
Parallel b&c, 4 threads:
  Real time             =    0.00 sec. (0.00 ticks)
  Sync time (average)   =    0.00 sec.
  Wait time (average)   =    0.00 sec.
                          ------------
Total (root+branch&cut) =    0.02 sec. (13.77 ticks)
